1310
2
49, 44, 2, 81, 66, 76, 66, 42, 58, 91, 20, 68, 47, 40, 67, 47, 33, 48, 76, 74, 78, 46, 28, 19, 34, 45, 73, 18, 75
27, 51, 23, 55, 24, 86, 69, 38, 34, 88, 11, 93, 65, 91, 9, 64, 13, 39, 4, 70, 63, 33, 11, 43, 73, 85, 58, 31, 32
2, 1, 2, 2, 1, 1, 1, 2, 2, 1, 2, 2, 2, 2, 2, 1, 2, 2, 2, 1, 1, 2, 2, 2, 2, 1, 1, 1, 2